NAME : kroA100-R-3-0-a.38814.tour
COMMENT : Length = 38814
COMMENT : Found by LKH-3 [Keld Helsgaun] Tue Jul 30 13:14:56 2024
TYPE : TOUR
DIMENSION : 100
TOUR_SECTION
1
92
8
80
26
94
88
90
49
6
15
93
67
58
61
87
77
60
62
20
27
12
55
34
43
3
100
52
5
33
95
54
40
64
73
50
76
37
30
48
71
14
29
83
86
35
47
11
21
72
10
84
99
38
18
79
53
16
22
66
65
19
75
97
56
42
89
31
4
70
24
36
59
74
17
32
45
91
98
23
57
9
7
46
41
78
96
39
13
82
2
44
85
68
69
81
25
51
28
63
-1
EOF
